(set-option :print-success false)
(set-logic QF_UF)
(declare-sort x85 0)
(declare-sort x102 0)
(declare-fun x12 () x102)
(declare-fun x99 () x102)
(declare-fun x9 () x102)
(declare-fun x63 (x102 x102) x102)
(declare-fun x137 (x102 x102) x102)
(declare-fun x87 () x102)
(declare-fun x54 () x102)
(assert (not (and (= x9 (x63 x87 x87)) (and (and (= x12 (x63 x87 x12)) (and (and (= (x63 x87 x9) x99) (and (= (x63 x99 x87) x12) (and (= x99 (x63 x99 x99)) (and (= (x63 x99 x12) x54) (and (= x9 (x63 x99 x54)) (and (and (= (x63 x12 x87) x87) (and (= (x63 x12 x99) x9) (and (and (= x12 (x63 x12 x54)) (and (and (= (x63 x54 x87) x99) (and (and (= (x63 x54 x12) x9) (and (= (x63 x54 x54) x87) (and (and (= (x63 x9 x87) x54) (and (and (and (= (x63 x9 x54) x99) (= (x63 x9 x9) x9)) (= (x63 x9 x12) x87)) (= x12 (x63 x9 x99)))) (= x12 (x63 x54 x9))))) (= x54 (x63 x54 x99)))) (= x54 (x63 x12 x9)))) (= x99 (x63 x12 x12))))) (= x87 (x63 x99 x9)))))))) (= (x63 x87 x54) x54))) (= (x63 x87 x99) x87)))))
(assert (or (or (or (and (not (= x87 (x63 x12 x87))) (and (and (not (= (x63 x12 x12) x12)) (and (not (= (x63 x12 x54) x54)) (not (= x9 (x63 x12 x9))))) (not (= (x63 x12 x99) x99)))) (or (and (not (= x87 (x63 x9 x87))) (and (not (= (x63 x9 x99) x99)) (and (and (not (= (x63 x9 x54) x54)) (not (= x9 (x63 x9 x9)))) (not (= (x63 x9 x12) x12))))) (and (not (= x87 (x63 x54 x87))) (and (and (not (= x12 (x63 x54 x12))) (and (not (= (x63 x54 x9) x9)) (not (= (x63 x54 x54) x54)))) (not (= (x63 x54 x99) x99)))))) (and (and (not (= (x63 x99 x99) x99)) (and (not (= x12 (x63 x99 x12))) (and (not (= x9 (x63 x99 x9))) (not (= x54 (x63 x99 x54)))))) (not (= x87 (x63 x99 x87))))) (and (and (not (= (x63 x87 x99) x99)) (and (and (not (= (x63 x87 x9) x9)) (not (= (x63 x87 x54) x54))) (not (= x12 (x63 x87 x12))))) (not (= x87 (x63 x87 x87))))))
(assert (or (and (not (= x87 (x63 x87 (x63 x87 x87)))) (and (not (= (x63 x99 (x63 x87 x99)) x87)) (and (and (not (= (x63 x9 (x63 x87 x9)) x87)) (not (= (x63 x54 (x63 x87 x54)) x87))) (not (= x87 (x63 x12 (x63 x87 x12))))))) (or (or (and (not (= (x63 x87 (x63 x12 x87)) x12)) (and (not (= x12 (x63 x99 (x63 x12 x99)))) (and (and (not (= (x63 x9 (x63 x12 x9)) x12)) (not (= (x63 x54 (x63 x12 x54)) x12))) (not (= (x63 x12 (x63 x12 x12)) x12))))) (or (and (and (not (= x54 (x63 x99 (x63 x54 x99)))) (and (not (= x54 (x63 x12 (x63 x54 x12)))) (and (not (= x54 (x63 x9 (x63 x54 x9)))) (not (= x54 (x63 x54 (x63 x54 x54))))))) (not (= (x63 x87 (x63 x54 x87)) x54))) (and (not (= x9 (x63 x87 (x63 x9 x87)))) (and (and (and (not (= x9 (x63 x54 (x63 x9 x54)))) (not (= x9 (x63 x9 (x63 x9 x9))))) (not (= (x63 x12 (x63 x9 x12)) x9))) (not (= (x63 x99 (x63 x9 x99)) x9)))))) (and (not (= x99 (x63 x87 (x63 x99 x87)))) (and (and (and (not (= (x63 x9 (x63 x99 x9)) x99)) (not (= x99 (x63 x54 (x63 x99 x54))))) (not (= (x63 x12 (x63 x99 x12)) x99))) (not (= (x63 x99 (x63 x99 x99)) x99)))))))
(assert (and (not (= x87 x99)) (and (and (and (not (= x54 x87)) (and (and (not (= x12 x54)) (and (not (= x9 x87)) (and (not (= x9 x99)) (and (not (= x12 x9)) (not (= x9 x54)))))) (not (= x99 x54)))) (not (= x99 x12))) (not (= x87 x12)))))
(assert (let ((x83 (x63 x99 x54)) (x151 (x63 x87 x99)) (x20 (x63 x54 x87)) (x110 (x63 x12 x87)) (x47 (x63 x54 x99)) (x95 (x63 x99 x9)) (x28 (x63 x9 x99)) (x120 (x63 x9 x54)) (x157 (x63 x87 x12)) (x82 (x63 x87 x87)) (x65 (x63 x9 x12)) (x127 (x63 x12 x9)) (x147 (x63 x12 x99)) (x107 (x63 x54 x9)) (x106 (x63 x9 x9)) (x115 (x63 x9 x87)) (x56 (x63 x12 x12)) (x4 (x63 x99 x99)) (x67 (x63 x12 x54)) (x143 (x63 x99 x12)) (x11 (x63 x87 x54)) (x44 (x63 x54 x54)) (x114 (x63 x99 x87)) (x124 (x63 x87 x9)) (x118 (x63 x54 x12))) (or (and (not (= (x63 x82 x82) x87)) (and (and (not (= (x63 x157 x157) x12)) (and (not (= (x63 x124 x124) x9)) (not (= (x63 x11 x11) x54)))) (not (= x99 (x63 x151 x151))))) (or (or (and (not (= x87 (x63 x110 x110))) (and (and (not (= x12 (x63 x56 x56))) (and (not (= (x63 x67 x67) x54)) (not (= (x63 x127 x127) x9)))) (not (= (x63 x147 x147) x99)))) (or (and (and (not (= x99 (x63 x47 x47))) (and (and (not (= x54 (x63 x44 x44))) (not (= (x63 x107 x107) x9))) (not (= x12 (x63 x118 x118))))) (not (= x87 (x63 x20 x20)))) (and (and (not (= (x63 x28 x28) x99)) (and (and (not (= x9 (x63 x106 x106))) (not (= x54 (x63 x120 x120)))) (not (= (x63 x65 x65) x12)))) (not (= (x63 x115 x115) x87))))) (and (not (= x87 (x63 x114 x114))) (and (and (and (not (= (x63 x83 x83) x54)) (not (= (x63 x95 x95) x9))) (not (= x12 (x63 x143 x143)))) (not (= x99 (x63 x4 x4)))))))))
(assert (let ((x65 (x63 x54 x54)) (x107 (x63 x87 x87)) (x120 (x63 x9 x9)) (x28 (x63 x12 x12)) (x115 (x63 x99 x99))) (let ((x118 (= x65 x54)) (x56 (= x12 x28)) (x110 (= x107 x87)) (x106 (= x9 x120)) (x147 (= x99 x115))) (let ((x20 (and (not (= x107 x12)) (and (and (and (not (= x12 x120)) (not (= x12 x65))) (not x56)) (not (= x12 x115))))) (x44 (and (and (and (and (not (= x9 x65)) (not x106)) (not (= x9 x28))) (not (= x9 x115))) (not (= x107 x9)))) (x67 (and (and (not (= x115 x87)) (and (and (not (= x87 x65)) (not (= x120 x87))) (not (= x28 x87)))) (not x110))) (x127 (and (and (and (not (= x28 x99)) (and (not (= x99 x120)) (not (= x99 x65)))) (not x147)) (not (= x107 x99)))) (x47 (and (not (= x107 x54)) (and (and (not (= x54 x28)) (and (not x118) (not (= x120 x54)))) (not (= x54 x115)))))) (or (or (or (or (or (and (= (x63 x12 x99) x12) x127) (or (or (and x44 (= x12 (x63 x12 x9))) (and (= (x63 x12 x54) x12) x47)) (and x56 x20))) (and (= (x63 x12 x87) x12) x67)) (or (or (or (or (or (and x47 (= x9 (x63 x9 x54))) (and x106 x44)) (and (= x9 (x63 x9 x12)) x20)) (and (= (x63 x9 x99) x9) x127)) (and x67 (= x9 (x63 x9 x87)))) (or (or (and (= x54 (x63 x54 x99)) x127) (or (or (and x44 (= (x63 x54 x9) x54)) (and x47 x118)) (and x20 (= x54 (x63 x54 x12))))) (and x67 (= (x63 x54 x87) x54))))) (or (or (or (or (and x44 (= (x63 x99 x9) x99)) (and (= x99 (x63 x99 x54)) x47)) (and (= x99 (x63 x99 x12)) x20)) (and x127 x147)) (and x67 (= x99 (x63 x99 x87))))) (or (or (and x127 (= x87 (x63 x87 x99))) (or (and (= (x63 x87 x12) x87) x20) (or (and x47 (= x87 (x63 x87 x54))) (and (= (x63 x87 x9) x87) x44)))) (and x67 x110)))))))
(assert (let ((x28 (x63 x99 x99)) (x115 (x63 x87 x87)) (x65 (x63 x12 x12)) (x120 (x63 x54 x54)) (x106 (x63 x9 x9))) (or (and (not (= x87 x115)) (and (not (= x28 x87)) (and (and (not (= x106 x87)) (not (= x87 x120))) (not (= x87 x65))))) (or (or (and (not (= x12 x115)) (and (and (and (not (= x12 x106)) (not (= x120 x12))) (not (= x12 x65))) (not (= x12 x28)))) (or (and (not (= x115 x54)) (and (and (not (= x65 x54)) (and (not (= x120 x54)) (not (= x54 x106)))) (not (= x28 x54)))) (and (and (and (not (= x9 x65)) (and (not (= x9 x106)) (not (= x120 x9)))) (not (= x28 x9))) (not (= x9 x115))))) (and (not (= x99 x115)) (and (not (= x28 x99)) (and (not (= x99 x65)) (and (not (= x106 x99)) (not (= x99 x120))))))))))
(assert (let ((x95 (x63 x9 x99)) (x115 (x63 x87 x9)) (x83 (x63 x54 x99)) (x28 (x63 x99 x9)) (x120 (x63 x54 x9)) (x44 (x63 x54 x54)) (x127 (x63 x9 x12)) (x11 (x63 x54 x87)) (x124 (x63 x9 x87)) (x65 (x63 x12 x9)) (x82 (x63 x87 x87)) (x20 (x63 x87 x54)) (x106 (x63 x9 x9)) (x143 (x63 x12 x99)) (x151 (x63 x99 x87)) (x157 (x63 x12 x87)) (x67 (x63 x54 x12)) (x107 (x63 x9 x54)) (x110 (x63 x87 x12)) (x56 (x63 x12 x12)) (x118 (x63 x12 x54)) (x47 (x63 x99 x54)) (x4 (x63 x99 x99)) (x147 (x63 x99 x12)) (x114 (x63 x87 x99))) (and (and (and (and (not (= x114 x4)) (and (not (= x114 x143)) (and (not (= x4 x143)) (and (not (= x114 x83)) (and (not (= x83 x4)) (and (and (and (not (= x4 x95)) (and (not (= x95 x143)) (not (= x95 x83)))) (not (= x114 x95))) (not (= x143 x83)))))))) (and (and (not (= x110 x147)) (and (not (= x56 x110)) (and (and (not (= x110 x67)) (and (and (and (and (and (not (= x127 x56)) (not (= x67 x127))) (not (= x127 x147))) (not (= x127 x110))) (not (= x56 x67))) (not (= x67 x147)))) (not (= x56 x147))))) (and (and (not (= x28 x115)) (and (not (= x65 x115)) (and (and (not (= x115 x120)) (and (and (and (and (not (= x28 x106)) (and (not (= x106 x120)) (not (= x106 x65)))) (not (= x106 x115))) (not (= x65 x120))) (not (= x28 x120)))) (not (= x28 x65))))) (and (not (= x47 x20)) (and (and (not (= x47 x118)) (and (and (and (and (not (= x107 x20)) (and (and (not (= x107 x118)) (not (= x44 x107))) (not (= x107 x47)))) (not (= x44 x118))) (not (= x47 x44))) (not (= x20 x44)))) (not (= x20 x118))))))) (and (and (and (not (= x157 x151)) (and (and (not (= x151 x11)) (and (not (= x11 x157)) (and (and (not (= x151 x124)) (and (not (= x124 x157)) (not (= x11 x124)))) (not (= x82 x124))))) (not (= x82 x11)))) (not (= x82 x157))) (not (= x151 x82)))) (and (and (and (not (= x110 x82)) (and (not (= x110 x114)) (and (and (and (not (= x20 x110)) (and (not (= x82 x115)) (and (not (= x115 x114)) (and (not (= x115 x110)) (not (= x20 x115)))))) (not (= x114 x20))) (not (= x20 x82))))) (not (= x82 x114))) (and (and (and (and (and (not (= x127 x124)) (and (and (and (and (not (= x127 x107)) (and (not (= x124 x106)) (and (and (not (= x106 x127)) (not (= x107 x106))) (not (= x106 x95))))) (not (= x107 x95))) (not (= x124 x107))) (not (= x95 x127)))) (not (= x124 x95))) (and (and (and (and (and (and (and (not (= x120 x11)) (and (and (not (= x44 x120)) (not (= x67 x120))) (not (= x120 x83)))) (not (= x44 x67))) (not (= x83 x44))) (not (= x11 x44))) (not (= x83 x67))) (not (= x11 x67))) (not (= x11 x83)))) (and (and (and (not (= x56 x143)) (and (not (= x157 x118)) (and (not (= x118 x143)) (and (and (not (= x65 x157)) (and (not (= x65 x143)) (and (not (= x56 x65)) (not (= x65 x118))))) (not (= x118 x56)))))) (not (= x56 x157))) (not (= x143 x157)))) (and (and (not (= x151 x147)) (and (and (not (= x47 x151)) (and (not (= x47 x4)) (and (not (= x47 x147)) (and (not (= x151 x28)) (and (and (not (= x28 x47)) (not (= x28 x147))) (not (= x28 x4))))))) (not (= x4 x147)))) (not (= x151 x4))))))))
(assert (or (or (and (not (= x99 (x63 (x63 x87 x99) x87))) (and (not (= (x63 (x63 x99 x99) x99) x99)) (and (and (not (= x99 (x63 (x63 x9 x99) x9))) (not (= x99 (x63 (x63 x54 x99) x54)))) (not (= x99 (x63 (x63 x12 x99) x12)))))) (or (and (and (not (= (x63 (x63 x99 x12) x99) x12)) (and (and (not (= (x63 (x63 x9 x12) x9) x12)) (not (= (x63 (x63 x54 x12) x54) x12))) (not (= x12 (x63 (x63 x12 x12) x12))))) (not (= (x63 (x63 x87 x12) x87) x12))) (or (and (not (= (x63 (x63 x87 x9) x87) x9)) (and (and (and (not (= x9 (x63 (x63 x54 x9) x54))) (not (= (x63 (x63 x9 x9) x9) x9))) (not (= (x63 (x63 x12 x9) x12) x9))) (not (= x9 (x63 (x63 x99 x9) x99))))) (and (not (= (x63 (x63 x87 x54) x87) x54)) (and (not (= x54 (x63 (x63 x99 x54) x99))) (and (not (= x54 (x63 (x63 x12 x54) x12))) (and (not (= (x63 (x63 x9 x54) x9) x54)) (not (= x54 (x63 (x63 x54 x54) x54)))))))))) (and (and (and (and (not (= (x63 (x63 x54 x87) x54) x87)) (not (= x87 (x63 (x63 x9 x87) x9)))) (not (= x87 (x63 (x63 x12 x87) x12)))) (not (= (x63 (x63 x99 x87) x99) x87))) (not (= (x63 (x63 x87 x87) x87) x87)))))
(assert (let ((x67 (x63 x12 x54)) (x143 (x63 x99 x12)) (x118 (x63 x54 x12)) (x83 (x63 x99 x54)) (x114 (x63 x99 x87)) (x115 (x63 x9 x87)) (x20 (x63 x54 x87)) (x56 (x63 x12 x12)) (x124 (x63 x87 x9)) (x127 (x63 x12 x9)) (x28 (x63 x9 x99)) (x147 (x63 x12 x99)) (x4 (x63 x99 x99)) (x11 (x63 x87 x54)) (x95 (x63 x99 x9)) (x151 (x63 x87 x99)) (x110 (x63 x12 x87)) (x106 (x63 x9 x9)) (x107 (x63 x54 x9)) (x47 (x63 x54 x99)) (x157 (x63 x87 x12)) (x65 (x63 x9 x12)) (x44 (x63 x54 x54)) (x120 (x63 x9 x54)) (x82 (x63 x87 x87))) (and (and (and (and (and (and (and (and (or (or (or (= x106 x12) (or (= x106 x54) (= x106 x9))) (= x99 x106)) (= x106 x87)) (or (= x120 x87) (or (= x99 x120) (or (= x120 x12) (or (= x120 x9) (= x54 x120)))))) (or (or (or (= x65 x12) (or (= x65 x54) (= x9 x65))) (= x99 x65)) (= x87 x65))) (or (or (or (= x12 x28) (or (= x28 x9) (= x28 x54))) (= x28 x99)) (= x28 x87))) (or (= x115 x87) (or (or (= x12 x115) (or (= x54 x115) (= x9 x115))) (= x115 x99)))) (and (or (= x20 x87) (or (= x99 x20) (or (or (= x20 x54) (= x20 x9)) (= x12 x20)))) (and (and (or (or (= x99 x118) (or (= x12 x118) (or (= x118 x54) (= x9 x118)))) (= x87 x118)) (and (or (= x87 x44) (or (= x99 x44) (or (= x12 x44) (or (= x44 x9) (= x44 x54))))) (or (= x107 x87) (or (= x107 x99) (or (= x107 x12) (or (= x107 x9) (= x54 x107))))))) (or (or (= x99 x47) (or (= x12 x47) (or (= x54 x47) (= x9 x47)))) (= x47 x87))))) (and (or (or (or (= x12 x110) (or (= x9 x110) (= x110 x54))) (= x110 x99)) (= x87 x110)) (and (or (= x147 x87) (or (= x99 x147) (or (= x147 x12) (or (= x54 x147) (= x9 x147))))) (and (or (or (= x99 x56) (or (or (= x56 x54) (= x9 x56)) (= x56 x12))) (= x56 x87)) (and (or (or (or (or (= x67 x54) (= x67 x9)) (= x12 x67)) (= x67 x99)) (= x87 x67)) (or (= x87 x127) (or (or (= x127 x12) (or (= x54 x127) (= x127 x9))) (= x99 x127)))))))) (and (and (and (and (or (or (= x99 x83) (or (= x12 x83) (or (= x83 x9) (= x54 x83)))) (= x83 x87)) (or (or (= x99 x95) (or (= x95 x12) (or (= x95 x9) (= x95 x54)))) (= x87 x95))) (or (= x143 x87) (or (= x143 x99) (or (or (= x143 x54) (= x9 x143)) (= x12 x143))))) (or (= x4 x87) (or (or (or (= x4 x54) (= x4 x9)) (= x12 x4)) (= x4 x99)))) (or (= x114 x87) (or (or (= x12 x114) (or (= x114 x9) (= x54 x114))) (= x99 x114))))) (and (and (and (or (or (or (= x12 x157) (or (= x54 x157) (= x9 x157))) (= x99 x157)) (= x87 x157)) (and (or (or (= x99 x124) (or (= x124 x12) (or (= x124 x9) (= x124 x54)))) (= x87 x124)) (or (or (= x99 x11) (or (or (= x11 x9) (= x54 x11)) (= x12 x11))) (= x87 x11)))) (or (= x151 x87) (or (= x99 x151) (or (= x151 x12) (or (= x54 x151) (= x9 x151)))))) (or (= x82 x87) (or (or (or (= x54 x82) (= x82 x9)) (= x82 x12)) (= x99 x82)))))))
(assert (or (= (x63 x87 x87) x87) (or (= (x63 x99 x99) x99) (or (= (x63 x12 x12) x12) (or (= x54 (x63 x54 x54)) (= (x63 x9 x9) x9))))))
(assert (or (and (= x87 (x63 (x63 x87 x87) x87)) (and (and (and (= (x63 (x63 x54 x87) x87) x54) (= x9 (x63 (x63 x9 x87) x87))) (= x12 (x63 (x63 x12 x87) x87))) (= x99 (x63 (x63 x99 x87) x87)))) (or (and (= (x63 (x63 x87 x99) x99) x87) (and (= (x63 (x63 x99 x99) x99) x99) (and (= x12 (x63 (x63 x12 x99) x99)) (and (= x9 (x63 (x63 x9 x99) x99)) (= (x63 (x63 x54 x99) x99) x54))))) (or (and (= (x63 (x63 x87 x12) x12) x87) (and (and (and (= x9 (x63 (x63 x9 x12) x12)) (= x54 (x63 (x63 x54 x12) x12))) (= x12 (x63 (x63 x12 x12) x12))) (= x99 (x63 (x63 x99 x12) x12)))) (or (and (and (and (= x12 (x63 (x63 x12 x9) x9)) (and (= x54 (x63 (x63 x54 x9) x9)) (= (x63 (x63 x9 x9) x9) x9))) (= x99 (x63 (x63 x99 x9) x9))) (= (x63 (x63 x87 x9) x9) x87)) (and (= (x63 (x63 x87 x54) x54) x87) (and (and (= x12 (x63 (x63 x12 x54) x54)) (and (= x54 (x63 (x63 x54 x54) x54)) (= (x63 (x63 x9 x54) x54) x9))) (= (x63 (x63 x99 x54) x54) x99))))))))
(assert (or (and (not (= x87 (x63 (x63 x87 x87) x87))) (and (and (and (not (= (x63 (x63 x87 x9) x87) x9)) (not (= x54 (x63 (x63 x87 x54) x87)))) (not (= x12 (x63 (x63 x87 x12) x87)))) (not (= x99 (x63 (x63 x87 x99) x87))))) (or (and (and (not (= (x63 (x63 x99 x99) x99) x99)) (and (and (not (= (x63 (x63 x99 x9) x99) x9)) (not (= x54 (x63 (x63 x99 x54) x99)))) (not (= x12 (x63 (x63 x99 x12) x99))))) (not (= (x63 (x63 x99 x87) x99) x87))) (or (or (and (and (not (= x99 (x63 (x63 x54 x99) x54))) (and (not (= (x63 (x63 x54 x12) x54) x12)) (and (not (= x54 (x63 (x63 x54 x54) x54))) (not (= (x63 (x63 x54 x9) x54) x9))))) (not (= x87 (x63 (x63 x54 x87) x54)))) (and (not (= x87 (x63 (x63 x9 x87) x9))) (and (and (and (not (= (x63 (x63 x9 x9) x9) x9)) (not (= x54 (x63 (x63 x9 x54) x9)))) (not (= x12 (x63 (x63 x9 x12) x9)))) (not (= (x63 (x63 x9 x99) x9) x99))))) (and (not (= x87 (x63 (x63 x12 x87) x12))) (and (not (= x99 (x63 (x63 x12 x99) x12))) (and (not (= (x63 (x63 x12 x12) x12) x12)) (and (not (= (x63 (x63 x12 x9) x12) x9)) (not (= x54 (x63 (x63 x12 x54) x12)))))))))))
(assert (not (and (= x9 (x63 x87 x87)) (and (and (and (= x87 (x63 x87 x54)) (and (and (= x12 (x63 x99 x87)) (and (= x99 (x63 x99 x99)) (and (= (x63 x99 x12) x54) (and (= x9 (x63 x99 x54)) (and (and (= x87 (x63 x12 x87)) (and (= (x63 x12 x99) x9) (and (= x99 (x63 x12 x12)) (and (and (= (x63 x12 x9) x12) (and (and (= x87 (x63 x54 x99)) (and (and (= (x63 x54 x54) x12) (and (and (and (= x12 (x63 x9 x99)) (and (= (x63 x9 x12) x87) (and (= (x63 x9 x9) x9) (= x99 (x63 x9 x54))))) (= (x63 x9 x87) x54)) (= (x63 x54 x9) x54))) (= x9 (x63 x54 x12)))) (= x99 (x63 x54 x87)))) (= (x63 x12 x54) x54))))) (= (x63 x99 x9) x87)))))) (= (x63 x87 x9) x99))) (= x12 (x63 x87 x12))) (= (x63 x87 x99) x54)))))
(assert (let ((x158 (x63 x9 x9)) (x128 (x63 x99 x99)) (x14 (x63 x87 x54)) (x154 (x63 x54 x9)) (x48 (x63 x99 x87)) (x80 (x63 x87 x12)) (x111 (x63 x87 x99)) (x73 (x63 x99 x12)) (x16 (x63 x12 x12)) (x103 (x63 x54 x99)) (x104 (x63 x9 x99)) (x140 (x63 x87 x87)) (x7 (x63 x87 x9)) (x17 (x63 x9 x12)) (x101 (x63 x54 x87)) (x41 (x63 x99 x54)) (x145 (x63 x12 x99)) (x153 (x63 x9 x87)) (x1 (x63 x54 x54)) (x133 (x63 x12 x9)) (x90 (x63 x54 x12)) (x130 (x63 x99 x9)) (x139 (x63 x12 x87)) (x70 (x63 x9 x54)) (x91 (x63 x12 x54))) (let ((x57 (= x16 x87)) (x15 (= x12 x154)) (x127 (= x104 x9)) (x78 (= x99 x70)) (x132 (= x12 x104)) (x114 (= x9 x101)) (x151 (= x9 x48)) (x121 (= x12 x153)) (x64 (= x145 x54)) (x55 (= x154 x87)) (x13 (= x16 x99)) (x119 (= x87 x130)) (x37 (= x111 x99)) (x93 (= x99 x48)) (x82 (= x9 x140)) (x135 (= x54 x101)) (x136 (= x99 x103)) (x33 (= x99 x90)) (x43 (= x41 x87)) (x138 (= x17 x12)) (x143 (= x153 x9)) (x40 (= x87 x104)) (x69 (= x158 x87)) (x118 (= x9 x90)) (x3 (= x12 x70)) (x66 (= x154 x54)) (x89 (= x128 x12)) (x157 (= x9 x111)) (x34 (= x111 x12)) (x83 (= x7 x9)) (x56 (= x9 x103)) (x60 (= x87 x80)) (x92 (= x99 x41)) (x5 (= x145 x87)) (x76 (= x145 x12)) (x156 (= x87 x101)) (x134 (= x99 x7)) (x117 (= x7 x54)) (x75 (= x99 x80)) (x25 (= x14 x12)) (x68 (= x17 x99)) (x53 (= x133 x54)) (x144 (= x48 x12)) (x62 (= x54 x48)) (x100 (= x1 x12)) (x146 (= x12 x140)) (x113 (= x91 x87)) (x19 (= x103 x12)) (x27 (= x140 x54)) (x46 (= x139 x54)) (x126 (= x12 x101)) (x21 (= x130 x12)) (x8 (= x139 x99)) (x18 (= x12 x139)) (x24 (= x54 x1)) (x131 (= x70 x54)) (x51 (= x7 x12)) (x96 (= x12 x158)) (x97 (= x99 x91)) (x142 (= x73 x87)) (x58 (= x73 x99)) (x159 (= x99 x104)) (x107 (= x9 x17)) (x129 (= x99 x140)) (x122 (= x54 x104)) (x35 (= x80 x12)) (x72 (= x12 x133)) (x77 (= x1 x87)) (x67 (= x9 x41)) (x10 (= x87 x128)) (x74 (= x41 x12)) (x30 (= x90 x12)) (x155 (= x87 x103)) (x94 (= x91 x54)) (x45 (= x12 x73)) (x147 (= x9 x73)) (x23 (= x54 x153)) (x38 (= x153 x87)) (x49 (= x128 x99)) (x150 (= x133 x87)) (x84 (= x139 x87)) (x110 (= x9 x145)) (x95 (= x9 x128)) (x26 (= x14 x87)) (x79 (= x111 x87)) (x52 (= x99 x101)) (x115 (= x133 x9)) (x125 (= x54 x41)) (x22 (= x99 x145)) (x2 (= x54 x90)) (x152 (= x158 x54)) (x81 (= x140 x87)) (x6 (= x99 x158)) (x106 (= x9 x158)) (x105 (= x54 x16)) (x149 (= x90 x87)) (x71 (= x99 x153)) (x108 (= x87 x48)) (x28 (= x9 x1)) (x65 (= x9 x70)) (x59 (= x87 x7)) (x86 (= x130 x54)) (x148 (= x99 x14)) (x11 (= x139 x9)) (x42 (= x87 x70)) (x98 (= x17 x87)) (x31 (= x99 x130)) (x88 (= x16 x12)) (x116 (= x80 x54)) (x61 (= x154 x99)) (x120 (= x154 x9)) (x124 (= x9 x80)) (x50 (= x54 x128)) (x123 (= x1 x99)) (x39 (= x103 x54)) (x32 (= x133 x99)) (x112 (= x91 x12)) (x109 (= x111 x54)) (x47 (= x16 x9)) (x29 (= x73 x54)) (x4 (= x14 x9)) (x20 (= x9 x130)) (x44 (= x91 x9)) (x141 (= x14 x54)) (x36 (= x17 x54))) (and (or (or (or (or (or (or (and x119 (not x40)) (and x43 (not x155))) (and (not x5) x142)) (and x10 (not x10))) (and (not x79) x108)) (or (or (or (and x156 (not x26)) (or (and x155 (not x43)) (or (and (not x113) x149) (or (and x77 (not x77)) (and x55 (not x42)))))) (or (or (or (and x98 (not x150)) (or (and x42 (not x55)) (and x69 (not x69)))) (and (not x119) x40)) (and x38 (not x59)))) (or (or (and x5 (not x142)) (or (and (not x57) x57) (or (and x113 (not x149)) (and x150 (not x98))))) (and x84 (not x60))))) (or (and (not x81) x81) (or (and x79 (not x108)) (or (and x60 (not x84)) (or (and x59 (not x38)) (and x26 (not x156))))))) (and (and (and (or (or (and (not x82) x82) (or (or (or (and x83 (not x143)) (and x4 (not x114))) (and x124 (not x11))) (and x157 (not x151)))) (or (or (and (not x157) x151) (or (and (not x95) x95) (or (or (and x67 (not x56)) (and x20 (not x127))) (and (not x110) x147)))) (or (or (or (or (or (and (not x118) x44) (and x115 (not x107))) (and (not x47) x47)) (and x110 (not x147))) (and (not x124) x11)) (or (or (or (and (not x20) x127) (or (and (not x115) x107) (or (and x106 (not x106)) (and (not x120) x65)))) (and x143 (not x83))) (or (or (and (not x67) x56) (or (or (and (not x65) x120) (and (not x28) x28)) (and x118 (not x44)))) (and (not x4) x114)))))) (or (or (or (or (and (not x116) x46) (or (or (or (and x94 (not x2)) (and x53 (not x36))) (and x105 (not x105))) (and x64 (not x29)))) (or (or (and x23 (not x117)) (or (and (not x86) x122) (or (and x36 (not x53)) (or (and (not x66) x131) (and x152 (not x152)))))) (or (and (not x141) x135) (or (or (or (and (not x24) x24) (and (not x131) x66)) (and x2 (not x94))) (and x39 (not x125)))))) (or (or (or (or (and x125 (not x39)) (and (not x122) x86)) (and (not x64) x29)) (and x50 (not x50))) (and (not x109) x62))) (or (and x27 (not x27)) (or (and (not x62) x109) (or (and x116 (not x46)) (or (and (not x135) x141) (and (not x23) x117))))))) (or (or (or (and x34 (not x144)) (or (or (and x51 (not x121)) (and x25 (not x126))) (and x35 (not x18)))) (and x146 (not x146))) (or (or (or (or (or (or (or (and x100 (not x100)) (and x15 (not x3))) (and (not x112) x30)) (and (not x74) x19)) (and (not x25) x126)) (or (and x121 (not x51)) (or (or (or (and x96 (not x96)) (and (not x15) x3)) (and x138 (not x72))) (and (not x21) x132)))) (or (and (not x35) x18) (or (or (and x88 (not x88)) (or (and x112 (not x30)) (and x72 (not x138)))) (and x76 (not x45))))) (or (and x144 (not x34)) (or (and x89 (not x89)) (or (and x45 (not x76)) (or (and (not x132) x21) (and x74 (not x19))))))))) (or (or (and x129 (not x129)) (or (and x37 (not x93)) (or (and (not x8) x75) (or (and (not x52) x148) (and x134 (not x71)))))) (or (or (or (or (and x22 (not x58)) (or (or (and (not x68) x32) (and (not x33) x97)) (and x13 (not x13)))) (and x8 (not x75))) (or (or (and (not x148) x52) (or (or (or (and x61 (not x78)) (and x123 (not x123))) (and x33 (not x97))) (and x136 (not x92)))) (or (or (or (and (not x32) x68) (or (and (not x61) x78) (and x6 (not x6)))) (and (not x31) x159)) (and x71 (not x134))))) (or (or (and x49 (not x49)) (or (and (not x22) x58) (or (and x92 (not x136)) (and (not x159) x31)))) (and x93 (not x37))))))))))
(assert (let ((x1 (x63 x54 x54)) (x41 (x63 x99 x54)) (x73 (x63 x99 x12)) (x70 (x63 x9 x54)) (x158 (x63 x9 x9)) (x111 (x63 x87 x99)) (x133 (x63 x12 x9)) (x103 (x63 x54 x99)) (x145 (x63 x12 x99)) (x7 (x63 x87 x9)) (x139 (x63 x12 x87)) (x101 (x63 x54 x87)) (x80 (x63 x87 x12)) (x16 (x63 x12 x12)) (x140 (x63 x87 x87)) (x48 (x63 x99 x87)) (x17 (x63 x9 x12)) (x90 (x63 x54 x12)) (x128 (x63 x99 x99)) (x91 (x63 x12 x54)) (x104 (x63 x9 x99)) (x154 (x63 x54 x9)) (x14 (x63 x87 x54)) (x153 (x63 x9 x87)) (x130 (x63 x99 x9))) (let ((x115 (not (= x9 x133))) (x56 (not (= x9 x103))) (x59 (not (= x7 x87))) (x2 (not (= x54 x90))) (x66 (not (= x154 x54))) (x35 (not (= x12 x80))) (x120 (not (= x154 x9))) (x157 (not (= x9 x111))) (x147 (not (= x73 x9))) (x159 (not (= x104 x99))) (x24 (not (= x1 x54))) (x146 (not (= x12 x140))) (x75 (not (= x80 x99))) (x23 (not (= x54 x153))) (x124 (not (= x80 x9))) (x64 (not (= x145 x54))) (x86 (not (= x54 x130))) (x11 (not (= x139 x9))) (x30 (not (= x90 x12))) (x152 (not (= x54 x158))) (x121 (not (= x12 x153))) (x45 (not (= x12 x73))) (x68 (not (= x17 x99))) (x123 (not (= x1 x99))) (x79 (not (= x111 x87))) (x67 (not (= x41 x9))) (x50 (not (= x54 x128))) (x72 (not (= x133 x12))) (x88 (not (= x16 x12))) (x58 (not (= x73 x99))) (x69 (not (= x158 x87))) (x118 (not (= x90 x9))) (x106 (not (= x158 x9))) (x83 (not (= x9 x7))) (x74 (not (= x41 x12))) (x126 (not (= x12 x101))) (x18 (not (= x12 x139))) (x29 (not (= x54 x73))) (x96 (not (= x158 x12))) (x77 (not (= x1 x87))) (x15 (not (= x154 x12))) (x6 (not (= x158 x99))) (x127 (not (= x9 x104))) (x132 (not (= x104 x12))) (x148 (not (= x99 x14))) (x119 (not (= x130 x87))) (x47 (not (= x16 x9))) (x52 (not (= x99 x101))) (x141 (not (= x14 x54))) (x27 (not (= x140 x54))) (x3 (not (= x12 x70))) (x93 (not (= x48 x99))) (x38 (not (= x153 x87))) (x33 (not (= x90 x99))) (x82 (not (= x9 x140))) (x144 (not (= x48 x12))) (x98 (not (= x17 x87))) (x89 (not (= x12 x128))) (x125 (not (= x41 x54))) (x112 (not (= x12 x91))) (x117 (not (= x54 x7))) (x39 (not (= x54 x103))) (x97 (not (= x99 x91))) (x55 (not (= x87 x154))) (x51 (not (= x12 x7))) (x94 (not (= x91 x54))) (x4 (not (= x9 x14))) (x40 (not (= x104 x87))) (x95 (not (= x9 x128))) (x100 (not (= x12 x1))) (x156 (not (= x87 x101))) (x13 (not (= x99 x16))) (x149 (not (= x87 x90))) (x113 (not (= x91 x87))) (x43 (not (= x41 x87))) (x81 (not (= x87 x140))) (x42 (not (= x87 x70))) (x129 (not (= x99 x140))) (x107 (not (= x17 x9))) (x37 (not (= x99 x111))) (x31 (not (= x130 x99))) (x22 (not (= x99 x145))) (x26 (not (= x14 x87))) (x34 (not (= x111 x12))) (x150 (not (= x87 x133))) (x134 (not (= x7 x99))) (x46 (not (= x54 x139))) (x136 (not (= x103 x99))) (x84 (not (= x139 x87))) (x105 (not (= x54 x16))) (x78 (not (= x99 x70))) (x135 (not (= x54 x101))) (x143 (not (= x9 x153))) (x138 (not (= x17 x12))) (x25 (not (= x12 x14))) (x36 (not (= x17 x54))) (x122 (not (= x104 x54))) (x49 (not (= x128 x99))) (x60 (not (= x87 x80))) (x110 (not (= x145 x9))) (x109 (not (= x111 x54))) (x76 (not (= x12 x145))) (x53 (not (= x133 x54))) (x21 (not (= x12 x130))) (x142 (not (= x73 x87))) (x71 (not (= x153 x99))) (x20 (not (= x9 x130))) (x151 (not (= x9 x48))) (x92 (not (= x99 x41))) (x57 (not (= x87 x16))) (x116 (not (= x54 x80))) (x155 (not (= x103 x87))) (x114 (not (= x9 x101))) (x131 (not (= x54 x70))) (x19 (not (= x103 x12))) (x65 (not (= x9 x70))) (x8 (not (= x139 x99))) (x62 (not (= x54 x48))) (x44 (not (= x9 x91))) (x28 (not (= x9 x1))) (x10 (not (= x87 x128))) (x108 (not (= x48 x87))) (x32 (not (= x99 x133))) (x5 (not (= x145 x87))) (x61 (not (= x99 x154)))) (or (and (and (and (or x79 x108) (and (or x60 x84) (and (or x59 x38) (or x156 x26)))) (or x81 x81)) (and (and (and (and (or x5 x142) (and (and (or x150 x98) (or x113 x149)) (or x57 x57))) (or x60 x84)) (and (and (or x59 x38) (and (and (and (or x69 x69) (or x42 x55)) (or x150 x98)) (or x119 x40))) (and (or x156 x26) (and (or x155 x43) (and (and (or x55 x42) (or x77 x77)) (or x149 x113)))))) (and (or x79 x108) (and (or x10 x10) (and (and (or x155 x43) (or x40 x119)) (or x142 x5)))))) (or (or (or (and (and (and (or x151 x157) (and (and (or x147 x110) (and (or x67 x56) (or x127 x20))) (or x95 x95))) (and (and (and (or x143 x83) (and (and (and (or x106 x106) (or x120 x65)) (or x115 x107)) (or x20 x127))) (and (and (and (or x44 x118) (and (or x28 x28) (or x65 x120))) (or x56 x67)) (or x4 x114))) (and (and (or x147 x110) (and (and (or x44 x118) (or x115 x107)) (or x47 x47))) (or x11 x124)))) (and (or x82 x82) (and (and (or x11 x124) (and (or x83 x143) (or x4 x114))) (or x151 x157)))) (and (and (and (and (and (and (or x86 x122) (and (and (or x152 x152) (or x66 x131)) (or x36 x53))) (or x23 x117)) (and (and (and (and (or x24 x24) (or x131 x66)) (or x94 x2)) (or x39 x125)) (or x141 x135))) (and (or x116 x46) (and (and (or x105 x105) (and (or x53 x36) (or x94 x2))) (or x29 x64)))) (and (or x62 x109) (and (and (or x29 x64) (and (or x39 x125) (or x86 x122))) (or x50 x50)))) (and (or x27 x27) (and (and (or x116 x46) (and (or x141 x135) (or x117 x23))) (or x62 x109))))) (and (and (and (or x34 x144) (and (or x18 x35) (and (or x121 x51) (or x25 x126)))) (or x146 x146)) (and (and (and (or x18 x35) (and (and (and (or x30 x112) (or x72 x138)) (or x88 x88)) (or x76 x45))) (and (and (or x51 x121) (and (and (or x138 x72) (and (or x15 x3) (or x96 x96))) (or x132 x21))) (and (or x126 x25) (and (or x19 x74) (and (and (or x100 x100) (or x15 x3)) (or x30 x112)))))) (and (or x34 x144) (and (and (and (or x132 x21) (or x19 x74)) (or x45 x76)) (or x89 x89)))))) (and (and (and (or x37 x93) (and (or x49 x49) (and (or x22 x58) (and (or x136 x92) (or x159 x31))))) (and (and (and (and (or x92 x136) (and (and (or x61 x78) (or x123 x123)) (or x33 x97))) (or x52 x148)) (and (and (or x31 x159) (and (and (or x78 x61) (or x6 x6)) (or x32 x68))) (or x134 x71))) (and (or x75 x8) (and (or x58 x22) (and (or x13 x13) (and (or x68 x32) (or x97 x33))))))) (and (and (and (or x8 x75) (and (or x52 x148) (or x71 x134))) (or x93 x37)) (or x129 x129))))))))
(assert (or (and (and (and (not (= (x63 (x63 x12 x87) x87) x12)) (and (not (= x9 (x63 (x63 x9 x87) x87))) (not (= x54 (x63 (x63 x54 x87) x87))))) (not (= (x63 (x63 x99 x87) x87) x99))) (not (= (x63 (x63 x87 x87) x87) x87))) (or (or (or (and (not (= x87 (x63 (x63 x87 x9) x9))) (and (and (and (not (= x9 (x63 (x63 x9 x9) x9))) (not (= (x63 (x63 x54 x9) x9) x54))) (not (= (x63 (x63 x12 x9) x9) x12))) (not (= (x63 (x63 x99 x9) x9) x99)))) (and (not (= x87 (x63 (x63 x87 x54) x54))) (and (not (= x99 (x63 (x63 x99 x54) x54))) (and (and (not (= (x63 (x63 x9 x54) x54) x9)) (not (= x54 (x63 (x63 x54 x54) x54)))) (not (= x12 (x63 (x63 x12 x54) x54))))))) (and (not (= (x63 (x63 x87 x12) x12) x87)) (and (not (= x99 (x63 (x63 x99 x12) x12))) (and (not (= x12 (x63 (x63 x12 x12) x12))) (and (not (= x9 (x63 (x63 x9 x12) x12))) (not (= x54 (x63 (x63 x54 x12) x12)))))))) (and (and (not (= x99 (x63 (x63 x99 x99) x99))) (and (and (not (= x54 (x63 (x63 x54 x99) x99))) (not (= (x63 (x63 x9 x99) x99) x9))) (not (= x12 (x63 (x63 x12 x99) x99))))) (not (= (x63 (x63 x87 x99) x99) x87))))))
(assert (let ((x11 (x63 x54 x87)) (x152 (x63 x87 x54)) (x30 (x63 x87 x99)) (x71 (x63 x87 x87)) (x115 (x63 x9 x99)) (x107 (x63 x9 x87)) (x101 (x63 x12 x12)) (x47 (x63 x12 x9)) (x65 (x63 x9 x54)) (x114 (x63 x54 x12)) (x120 (x63 x9 x9)) (x124 (x63 x54 x99)) (x28 (x63 x9 x12)) (x20 (x63 x99 x9)) (x15 (x63 x99 x99)) (x3 (x63 x99 x87)) (x16 (x63 x99 x12)) (x105 (x63 x87 x12)) (x53 (x63 x12 x87)) (x118 (x63 x54 x9)) (x127 (x63 x87 x9)) (x158 (x63 x99 x54)) (x4 (x63 x54 x54)) (x14 (x63 x12 x99)) (x82 (x63 x12 x54))) (let ((x130 (= x99 x4)) (x78 (= x87 x14)) (x64 (= x99 x101)) (x7 (= x87 x65)) (x95 (= x65 x9)) (x59 (= x127 x87)) (x77 (= x11 x12)) (x90 (= x9 x114)) (x145 (= x47 x12)) (x141 (= x158 x9)) (x155 (= x11 x99)) (x37 (= x54 x71)) (x92 (= x9 x3)) (x150 (= x53 x12)) (x140 (= x20 x54)) (x29 (= x99 x114)) (x35 (= x99 x14)) (x119 (= x99 x105)) (x123 (= x87 x15)) (x98 (= x12 x3)) (x112 (= x54 x15)) (x2 (= x54 x101)) (x61 (= x87 x124)) (x142 (= x99 x53)) (x94 (= x114 x54)) (x138 (= x14 x54)) (x134 (= x54 x30)) (x52 (= x54 x11)) (x19 (= x124 x12)) (x151 (= x4 x54)) (x116 (= x115 x9)) (x159 (= x53 x9)) (x17 (= x12 x4)) (x126 (= x124 x99)) (x51 (= x158 x99)) (x43 (= x107 x99)) (x50 (= x82 x87)) (x135 (= x9 x16)) (x24 (= x28 x9)) (x49 (= x54 x105)) (x109 (= x14 x9)) (x8 (= x3 x54)) (x106 (= x9 x120)) (x22 (= x152 x54)) (x108 (= x3 x87)) (x148 (= x107 x54)) (x136 (= x9 x71)) (x131 (= x9 x47)) (x125 (= x99 x82)) (x38 (= x152 x87)) (x111 (= x114 x87)) (x75 (= x54 x53)) (x139 (= x12 x28)) (x117 (= x101 x87)) (x132 (= x12 x16)) (x76 (= x15 x12)) (x18 (= x99 x15)) (x110 (= x118 x9)) (x25 (= x99 x115)) (x45 (= x14 x12)) (x83 (= x4 x9)) (x97 (= x105 x9)) (x80 (= x114 x12)) (x58 (= x127 x54)) (x1 (= x82 x9)) (x154 (= x65 x12)) (x62 (= x9 x15)) (x21 (= x158 x12)) (x67 (= x120 x12)) (x84 (= x11 x87)) (x48 (= x28 x87)) (x10 (= x99 x71)) (x56 (= x99 x120)) (x74 (= x115 x12)) (x32 (= x9 x127)) (x89 (= x20 x99)) (x129 (= x12 x152)) (x33 (= x30 x9)) (x157 (= x54 x65)) (x46 (= x9 x124)) (x27 (= x158 x54)) (x121 (= x99 x16)) (x70 (= x12 x118)) (x88 (= x12 x20)) (x57 (= x152 x99)) (x146 (= x16 x87)) (x147 (= x87 x120)) (x68 (= x9 x152)) (x34 (= x87 x20)) (x55 (= x30 x12)) (x79 (= x87 x53)) (x149 (= x99 x127)) (x41 (= x54 x82)) (x42 (= x12 x107)) (x103 (= x47 x54)) (x91 (= x101 x9)) (x60 (= x107 x87)) (x36 (= x28 x54)) (x122 (= x47 x99)) (x44 (= x54 x120)) (x31 (= x11 x9)) (x39 (= x28 x99)) (x153 (= x87 x118)) (x13 (= x9 x107)) (x86 (= x101 x12)) (x144 (= x87 x158)) (x96 (= x54 x16)) (x100 (= x115 x54)) (x40 (= x30 x99)) (x81 (= x87 x71)) (x156 (= x87 x30)) (x113 (= x71 x12)) (x133 (= x99 x118)) (x93 (= x12 x127)) (x69 (= x12 x105)) (x5 (= x99 x3)) (x143 (= x54 x118)) (x73 (= x82 x12)) (x66 (= x4 x87)) (x26 (= x87 x105)) (x128 (= x47 x87)) (x23 (= x9 x20)) (x6 (= x115 x87)) (x72 (= x124 x54)) (x104 (= x65 x99))) (and (and (and (and (and (and (and (or (or (or x122 (or x133 x56)) x89) x149) (or (or (or x39 (or x104 x56)) x25) x43)) (and (and (or (or x74 (or (or x154 x67) x139)) x42) (or (or x88 (or (or x67 x70) x145)) x93)) (and (and (or x148 (or x100 (or (or x44 x157) x36))) (or (or (or (or x44 x143) x103) x140) x58)) (and (or (or x23 (or x131 (or x110 x106))) x32) (or (or x116 (or (or x95 x106) x24)) x13))))) (and (or (or (or x48 (or x147 x7)) x6) x60) (or (or x34 (or (or x153 x147) x128)) x59))) (and (and (or (or x61 (or x111 (or x66 x153))) x84) (or (or (or (or x7 x66) x50) x144) x38)) (and (and (and (or (or x21 (or (or x17 x154) x73)) x129) (or (or (or (or x17 x70) x80) x19) x77)) (and (and (or (or (or x1 (or x95 x83)) x141) x68) (or (or (or x90 (or x110 x83)) x46) x31)) (and (or x52 (or x72 (or x94 (or x151 x143)))) (or x22 (or (or x41 (or x151 x157)) x27))))) (and (or x155 (or x126 (or (or x133 x130) x29))) (or x57 (or (or (or x130 x104) x125) x51)))))) (and (and (or (or (or x117 (or x111 x48)) x146) x26) (or (or x78 (or (or x50 x128) x117)) x79)) (and (and (and (and (or (or x96 (or (or x36 x94) x2)) x49) (or (or (or x2 (or x103 x41)) x138) x75)) (and (or x97 (or (or (or x24 x90) x91) x135)) (or (or (or (or x1 x131) x91) x109) x159))) (and (or x150 (or (or (or x73 x145) x86) x45)) (or (or x132 (or (or x139 x80) x86)) x69))) (and (or (or (or (or x39 x29) x64) x121) x119) (or (or (or x64 (or x122 x125)) x35) x142))))) (and (and (or (or (or x146 (or x144 x34)) x123) x108) (or x156 (or x123 (or (or x6 x61) x78)))) (and (and (and (or x98 (or x76 (or x132 (or x21 x88)))) (or (or (or x45 (or x74 x19)) x76) x55)) (and (and (or x8 (or x112 (or (or x140 x27) x96))) (or (or x112 (or x138 (or x72 x100))) x134)) (and (or x92 (or x62 (or x135 (or x23 x141)))) (or x33 (or (or x109 (or x116 x46)) x62))))) (and (or (or (or x121 (or x51 x89)) x18) x5) (or x40 (or x18 (or x35 (or x25 x126)))))))) (and (and (or x81 (or (or (or x84 x60) x79) x108)) (or x81 (or x156 (or (or x59 x38) x26)))) (and (and (or (or (or (or x149 x57) x119) x40) x10) (or x10 (or x5 (or (or x43 x155) x142)))) (and (and (or x113 (or (or (or x77 x42) x150) x98)) (or (or (or (or x129 x93) x69) x55) x113)) (and (and (or x136 (or (or (or x13 x31) x159) x92)) (or x136 (or (or x97 (or x68 x32)) x33))) (and (or (or (or (or x52 x148) x75) x8) x37) (or (or x134 (or x49 (or x58 x22))) x37))))))))))
(assert (let ((x28 (x63 x99 x9)) (x114 (x63 x87 x99)) (x67 (x63 x54 x12)) (x44 (x63 x54 x54)) (x83 (x63 x54 x99)) (x110 (x63 x87 x12)) (x4 (x63 x99 x99)) (x143 (x63 x12 x99)) (x47 (x63 x99 x54)) (x11 (x63 x54 x87)) (x95 (x63 x9 x99)) (x107 (x63 x9 x54)) (x147 (x63 x99 x12)) (x118 (x63 x12 x54)) (x120 (x63 x54 x9)) (x115 (x63 x87 x9)) (x56 (x63 x12 x12)) (x127 (x63 x9 x12)) (x124 (x63 x9 x87)) (x82 (x63 x87 x87)) (x106 (x63 x9 x9)) (x151 (x63 x99 x87)) (x65 (x63 x12 x9)) (x157 (x63 x12 x87)) (x20 (x63 x87 x54))) (and (or (= x87 (x63 x82 x82)) (or (or (or (= (x63 x124 x124) x9) (= x54 (x63 x11 x11))) (= (x63 x157 x157) x12)) (= x99 (x63 x151 x151)))) (and (or (or (= (x63 x4 x4) x99) (or (= (x63 x143 x143) x12) (or (= (x63 x83 x83) x54) (= (x63 x95 x95) x9)))) (= (x63 x114 x114) x87)) (and (or (= (x63 x110 x110) x87) (or (or (or (= (x63 x127 x127) x9) (= x54 (x63 x67 x67))) (= x12 (x63 x56 x56))) (= (x63 x147 x147) x99))) (and (or (or (= x99 (x63 x28 x28)) (or (= x12 (x63 x65 x65)) (or (= (x63 x106 x106) x9) (= (x63 x120 x120) x54)))) (= (x63 x115 x115) x87)) (or (= (x63 x20 x20) x87) (or (or (= (x63 x118 x118) x12) (or (= (x63 x44 x44) x54) (= (x63 x107 x107) x9))) (= (x63 x47 x47) x99)))))))))
(assert (and (and (= x12 (x63 x9 x99)) (and (= x9 (x63 x87 x87)) (= (x63 x99 x12) x54))) (= x99 (x63 x87 x9))))
(assert (and (or (or (= x99 (x63 x87 (x63 x87 x99))) (or (= (x63 x87 (x63 x87 x12)) x12) (or (= (x63 x87 (x63 x87 x9)) x9) (= x54 (x63 x87 (x63 x87 x54)))))) (= (x63 x87 (x63 x87 x87)) x87)) (and (or (or (or (or (= x9 (x63 x99 (x63 x99 x9))) (= x54 (x63 x99 (x63 x99 x54)))) (= (x63 x99 (x63 x99 x12)) x12)) (= x99 (x63 x99 (x63 x99 x99)))) (= (x63 x99 (x63 x99 x87)) x87)) (and (and (or (= x87 (x63 x9 (x63 x9 x87))) (or (or (= x12 (x63 x9 (x63 x9 x12))) (or (= x9 (x63 x9 (x63 x9 x9))) (= x54 (x63 x9 (x63 x9 x54))))) (= x99 (x63 x9 (x63 x9 x99))))) (or (or (or (or (= x9 (x63 x54 (x63 x54 x9))) (= (x63 x54 (x63 x54 x54)) x54)) (= x12 (x63 x54 (x63 x54 x12)))) (= (x63 x54 (x63 x54 x99)) x99)) (= (x63 x54 (x63 x54 x87)) x87))) (or (= (x63 x12 (x63 x12 x87)) x87) (or (= x99 (x63 x12 (x63 x12 x99))) (or (= x12 (x63 x12 (x63 x12 x12))) (or (= x54 (x63 x12 (x63 x12 x54))) (= x9 (x63 x12 (x63 x12 x9)))))))))))
(check-sat)
(exit)
